MnO3                                                                # This line is treated as comment
   1.00000000000000                                                 # This is a scaling parameter. All latice parameters are multiplied by it   
     5.0607319928007115   -0.0579993773287925    0.0000000000000000 # Unit vector a
    -2.5739673338140645    4.3576443630445887    0.0000000000000000 # Unit vector b
     0.0000000000000000    0.0000000000000000    4.5774326747647487 # Unit vector c
   Mn   O                                                           # Types of elements in your cell
     2     6                                                        # Number of atoms in you cell, here 2 Mn and 6 O
Direct                                                              # Types of coordinates
  0.1648975700103521  0.8351023999896383  0.0000000000000000        # Positions of each element in the cell
  0.8351023999896454  0.1648975700103592  0.0000000000000000
  0.7493416178310225  0.7493416178310225  0.2488658773014309
  0.2506583671689726  0.2506583671689726  0.7511341376985669
  0.0252299778993863  0.3851424587562699  0.2380108627834839
  0.6148575412437443  0.9747699991006082  0.7619891662165079
  0.9747699991006153  0.6148575412437300  0.7619891662165150
  0.3851424587562557  0.0252299778993863  0.2380108627834910
