FCC Si
1.0
3.9 0.0 0.0
0.0 3.9 0.0
0.0 0.0 3.9
Si
1
Direct
0.5 0.5 0.0
