# General Setup
  System = fcc Si
  ENCUT = 240

# Electronic Relaxation (SCF)
  EDIFF = 1e-06
  NELMIN = 5
  NELM = 60

# Ionic Relaxation
  EDIFFG = 0.001
  IBRION = 2
  ISIF = 3
  ISMEAR = 0
  NSW = 25
  SIGMA = 0.10
